p cnf 71 227
3 1 0
3 2 0
-1 -2 -3 0
5 -3 0
5 4 0
3 -4 -5 0
-5 -3 -6 0
5 3 -6 0
-5 3 6 0
5 -3 6 0
10 8 0
10 -9 0
-8 9 -10 0
-10 -11 0
10 -11 0
-11 12 -13 0
11 -12 -13 0
-11 -12 13 0
11 12 13 0
14 -7 0
14 13 0
7 -13 -14 0
-15 14 0
-15 -5 0
-14 5 15 0
17 15 0
17 16 0
-15 -16 -17 0
19 -17 0
19 -18 0
17 18 -19 0
22 -21 0
22 1 0
21 -1 -22 0
23 20 0
23 22 0
-20 -22 -23 0
3 14 -24 0
-3 -14 -24 0
3 -14 24 0
-3 14 24 0
-25 23 0
-25 24 0
-23 -24 25 0
19 25 -26 0
-19 -25 -26 0
19 -25 26 0
-19 25 26 0
27 6 0
27 26 0
-6 -26 -27 0
28 23 0
28 -1 0
-23 1 -28 0
31 -29 0
31 -30 0
29 30 -31 0
32 28 0
32 31 0
-28 -31 -32 0
-33 27 0
-33 32 0
-27 -32 33 0
-35 -11 0
-35 -34 0
11 34 35 0
36 -21 0
36 9 0
21 -9 -36 0
-37 11 0
-37 36 0
-11 -36 37 0
38 -35 0
38 37 0
35 -37 -38 0
-39 14 0
-39 -20 0
-14 20 39 0
-38 -39 -40 0
38 39 -40 0
-38 39 40 0
38 -39 40 0
41 -36 0
41 -18 0
36 18 -41 0
-42 -18 0
-42 41 0
18 -41 42 0
43 8 0
43 -42 0
-8 42 -43 0
44 -40 0
44 -43 0
40 43 -44 0
45 -22 0
45 -22 0
22 -45 0
-45 -21 -46 0
45 21 -46 0
-45 21 46 0
45 -21 46 0
1 9 -47 0
-1 -9 -47 0
1 -9 47 0
-1 9 47 0
-12 47 -48 0
12 -47 -48 0
-12 -47 48 0
12 47 48 0
-49 14 0
-49 23 0
-14 -23 49 0
-49 -11 -50 0
49 11 -50 0
-49 11 50 0
49 -11 50 0
-51 48 0
-51 50 0
-48 -50 51 0
52 -46 0
52 -51 0
46 51 -52 0
-44 -52 -53 0
44 52 -53 0
-44 52 53 0
44 -52 53 0
-1 18 -54 0
1 -18 -54 0
-1 -18 54 0
1 18 54 0
-55 34 0
-55 54 0
-34 -54 55 0
-56 -3 0
-56 -4 0
3 4 56 0
56 18 -57 0
-56 -18 -57 0
56 -18 57 0
-56 18 57 0
55 -57 -58 0
-55 57 -58 0
55 57 58 0
-55 -57 58 0
59 -21 0
59 -16 0
21 16 -59 0
60 -58 0
60 59 0
58 -59 -60 0
49 -2 -61 0
-49 2 -61 0
49 2 61 0
-49 -2 61 0
12 -45 -62 0
-12 45 -62 0
12 45 62 0
-12 -45 62 0
63 -18 0
63 62 0
18 -62 -63 0
64 -61 0
64 63 0
61 -63 -64 0
-13 -2 -65 0
13 2 -65 0
-13 2 65 0
13 -2 65 0
66 14 0
66 -9 0
-14 9 -66 0
65 66 -67 0
-65 -66 -67 0
65 -66 67 0
-65 66 67 0
68 -64 0
68 67 0
64 -67 -68 0
-69 -60 0
-69 -68 0
60 68 69 0
-53 -69 -70 0
53 69 -70 0
-53 69 70 0
53 -69 70 0
71 -33 0
71 -70 0
33 70 -71 0
37 46 -35 0
-22 4 -37 -33 2 0
-19 37 42 -58 0
-70 -52 0
-57 34 -39 70 0
-25 71 6 65 0
-49 65 38 17 0
-9 -4 55 27 -25 0
50 -17 52 0
-71 -21 -17 43 0
-53 1 0
-40 2 -71 -34 56 0
-41 -29 0
-20 53 -11 35 25 -10 0
-27 -21 41 37 0
-27 16 0
-36 -68 29 33 65 0
64 51 24 0
-52 7 -4 0
-64 43 -34 0
3 19 49 -70 0
12 -60 62 65 0
-4 51 -9 0
-51 8 -52 0
14 -15 69 -32 -46 0
11 63 17 -6 -66 0
25 -64 31 -46 49 -52 0
62 -50 0
52 -42 40 58 0
-16 52 -3 -33 -26 46 0
-53 -34 71 -48 0
-4 40 71 46 0
-36 -34 -32 50 -57 -27 0
18 25 0
-12 17 0
23 68 -65 -4 0
38 63 -57 -37 42 0
11 10 0
71 0
